104805
71,66,36,26,76,20,67,14,70,62,80,54,46,45,29,10,1,64,73,13,37,18,65,50,4,52,41,39,63,83,8,53,59,68,75,11,33,16,38,2,30,35,28,79,6,61,15,78,69,25,42,55,23,12,3,43,57,34,49,47,60,81,72,51,27,7,56,17,77,9,58,74,32,40,82,44,22,5,19,31,24,48,21,71